examples/inputs/input16.dzn
n = 54;
l = 450;
s = 450;
r = 450;
f = 100;
forbidden = [| 34, 22
	| 52, 13
	| 10, 11
	| 35, 34
	| 17, 7
	| 11, 43
	| 5, 49
	| 17, 54
	| 13, 34
	| 14, 6
	| 49, 12
	| 19, 17
	| 42, 21
	| 13, 6
	| 20, 45
	| 37, 3
	| 48, 44
	| 37, 35
	| 54, 54
	| 25, 10
	| 12, 18
	| 32, 27
	| 21, 50
	| 20, 8
	| 41, 25
	| 48, 42
	| 43, 6
	| 43, 46
	| 1, 23
	| 6, 39
	| 41, 36
	| 43, 3
	| 41, 6
	| 44, 21
	| 13, 25
	| 45, 33
	| 54, 23
	| 26, 25
	| 39, 42
	| 30, 3
	| 29, 22
	| 8, 5
	| 43, 23
	| 5, 1
	| 31, 32
	| 52, 20
	| 54, 13
	| 19, 19
	| 28, 54
	| 42, 35
	| 36, 43
	| 41, 16
	| 44, 14
	| 10, 29
	| 50, 35
	| 38, 51
	| 30, 29
	| 48, 22
	| 54, 16
	| 29, 15
	| 26, 23
	| 51, 32
	| 12, 38
	| 16, 47
	| 48, 52
	| 11, 12
	| 53, 17
	| 47, 46
	| 21, 8
	| 30, 47
	| 20, 52
	| 20, 23
	| 4, 29
	| 33, 29
	| 51, 11
	| 16, 45
	| 3, 25
	| 15, 42
	| 23, 31
	| 24, 54
	| 35, 19
	| 16, 39
	| 24, 17
	| 24, 37
	| 24, 9
	| 40, 37
	| 48, 1
	| 46, 4
	| 29, 12
	| 15, 6
	| 3, 28
	| 5, 13
	| 46, 32
	| 16, 54
	| 23, 38
	| 36, 12
	| 15, 46
	| 40, 2
	| 17, 29
	| 28, 49
	|];