examples/inputs/input16.lp
#const n = 54.
#const l = 450.
#const s = 450.
#const r = 450.
#const f = 100.
val(34, 22, xxx).
val(52, 13, xxx).
val(10, 11, xxx).
val(35, 34, xxx).
val(17, 7, xxx).
val(11, 43, xxx).
val(5, 49, xxx).
val(17, 54, xxx).
val(13, 34, xxx).
val(14, 6, xxx).
val(49, 12, xxx).
val(19, 17, xxx).
val(42, 21, xxx).
val(13, 6, xxx).
val(20, 45, xxx).
val(37, 3, xxx).
val(48, 44, xxx).
val(37, 35, xxx).
val(54, 54, xxx).
val(25, 10, xxx).
val(12, 18, xxx).
val(32, 27, xxx).
val(21, 50, xxx).
val(20, 8, xxx).
val(41, 25, xxx).
val(48, 42, xxx).
val(43, 6, xxx).
val(43, 46, xxx).
val(1, 23, xxx).
val(6, 39, xxx).
val(41, 36, xxx).
val(43, 3, xxx).
val(41, 6, xxx).
val(44, 21, xxx).
val(13, 25, xxx).
val(45, 33, xxx).
val(54, 23, xxx).
val(26, 25, xxx).
val(39, 42, xxx).
val(30, 3, xxx).
val(29, 22, xxx).
val(8, 5, xxx).
val(43, 23, xxx).
val(5, 1, xxx).
val(31, 32, xxx).
val(52, 20, xxx).
val(54, 13, xxx).
val(19, 19, xxx).
val(28, 54, xxx).
val(42, 35, xxx).
val(36, 43, xxx).
val(41, 16, xxx).
val(44, 14, xxx).
val(10, 29, xxx).
val(50, 35, xxx).
val(38, 51, xxx).
val(30, 29, xxx).
val(48, 22, xxx).
val(54, 16, xxx).
val(29, 15, xxx).
val(26, 23, xxx).
val(51, 32, xxx).
val(12, 38, xxx).
val(16, 47, xxx).
val(48, 52, xxx).
val(11, 12, xxx).
val(53, 17, xxx).
val(47, 46, xxx).
val(21, 8, xxx).
val(30, 47, xxx).
val(20, 52, xxx).
val(20, 23, xxx).
val(4, 29, xxx).
val(33, 29, xxx).
val(51, 11, xxx).
val(16, 45, xxx).
val(3, 25, xxx).
val(15, 42, xxx).
val(23, 31, xxx).
val(24, 54, xxx).
val(35, 19, xxx).
val(16, 39, xxx).
val(24, 17, xxx).
val(24, 37, xxx).
val(24, 9, xxx).
val(40, 37, xxx).
val(48, 1, xxx).
val(46, 4, xxx).
val(29, 12, xxx).
val(15, 6, xxx).
val(3, 28, xxx).
val(5, 13, xxx).
val(46, 32, xxx).
val(16, 54, xxx).
val(23, 38, xxx).
val(36, 12, xxx).
val(15, 46, xxx).
val(40, 2, xxx).
val(17, 29, xxx).
val(28, 49, xxx).